NAME : random1012484
COMMENT: random generated with id 1012484
TYPE : TSP
DIMENSION : 10
EDGE_WEIGHT_TYPE : EUC_2D
NODE_COORD_SECTION
1 0.635297 3.134118
2 16.865834 14.234447
3 8.053309 7.071795
4 19.044883 12.362962
5 18.709874 14.698521
6 3.051085 10.599094
7 17.193272 11.451142
8 13.103484 14.926719
9 15.781975 9.003055
10 1.988118 7.153227
EOF
